400 1583 
1 5 1
1 6 1
1 8 1
1 9 1
1 10 1
1 11 1
1 16 1
1 20 1
1 24 1
1 27 1
1 31 1
1 35 1
1 42 1
1 46 1
1 59 1
1 67 1
1 94 1
1 101 1
1 102 1
1 109 1
1 122 1
1 134 1
1 136 1
1 140 1
1 142 1
1 155 1
1 166 1
1 169 1
1 176 1
1 179 1
1 193 1
1 214 1
1 225 1
1 232 1
1 249 1
1 263 1
1 266 1
1 314 1
1 321 1
1 334 1
1 335 1
1 336 1
1 355 1
1 382 1
2 5 1
2 7 1
2 12 1
2 13 1
2 17 1
2 23 1
2 40 1
2 60 1
2 69 1
2 78 1
2 93 1
2 133 1
2 151 1
2 165 1
2 189 1
2 205 1
2 220 1
2 308 1
2 330 1
2 337 1
2 399 1
3 5 1
3 6 1
3 7 1
3 8 1
3 9 1
3 11 1
3 12 1
3 18 1
3 21 1
3 29 1
3 39 1
3 43 1
3 46 1
3 53 1
3 54 1
3 62 1
3 81 1
3 123 1
3 125 1
3 127 1
3 132 1
3 134 1
3 147 1
3 151 1
3 152 1
3 154 1
3 159 1
3 174 1
3 190 1
3 191 1
3 194 1
3 216 1
3 222 1
3 227 1
3 238 1
3 257 1
3 263 1
3 264 1
3 291 1
3 292 1
3 299 1
3 330 1
3 340 1
4 5 1
4 6 1
4 7 1
4 8 1
4 14 1
4 15 1
4 18 1
4 19 1
4 35 1
4 38 1
4 75 1
4 82 1
4 86 1
4 90 1
4 92 1
4 95 1
4 98 1
4 102 1
4 122 1
4 127 1
4 131 1
4 251 1
4 276 1
4 280 1
4 283 1
4 315 1
4 328 1
4 330 1
4 386 1
4 395 1
5 6 1
5 7 1
5 8 1
5 11 1
5 14 1
5 15 1
5 16 1
5 20 1
5 21 1
5 22 1
5 23 1
5 31 1
5 32 1
5 33 1
5 47 1
5 52 1
5 56 1
5 64 1
5 68 1
5 70 1
5 71 1
5 73 1
5 74 1
5 77 1
5 78 1
5 79 1
5 86 1
5 89 1
5 91 1
5 92 1
5 98 1
5 109 1
5 119 1
5 126 1
5 136 1
5 146 1
5 147 1
5 149 1
5 153 1
5 169 1
5 170 1
5 173 1
5 182 1
5 187 1
5 205 1
5 232 1
5 237 1
5 255 1
5 257 1
5 259 1
5 269 1
5 279 1
5 286 1
5 288 1
5 294 1
5 295 1
5 300 1
5 316 1
5 321 1
5 328 1
5 330 1
5 331 1
5 333 1
5 334 1
5 339 1
5 370 1
5 378 1
5 379 1
5 381 1
6 9 1
6 10 1
6 16 1
6 17 1
6 30 1
6 33 1
6 36 1
6 42 1
6 45 1
6 57 1
6 67 1
6 69 1
6 71 1
6 73 1
6 77 1
6 100 1
6 101 1
6 129 1
6 135 1
6 139 1
6 144 1
6 145 1
6 154 1
6 156 1
6 161 1
6 162 1
6 163 1
6 164 1
6 166 1
6 171 1
6 185 1
6 218 1
6 219 1
6 221 1
6 229 1
6 244 1
6 281 1
6 287 1
6 299 1
6 314 1
6 317 1
6 333 1
6 335 1
6 351 1
6 375 1
6 391 1
6 394 1
6 396 1
7 9 1
7 10 1
7 32 1
7 39 1
7 44 1
7 77 1
7 107 1
7 117 1
7 158 1
7 190 1
7 327 1
7 333 1
8 14 1
8 15 1
8 18 1
8 20 1
8 25 1
8 26 1
8 27 1
8 35 1
8 38 1
8 39 1
8 40 1
8 41 1
8 51 1
8 57 1
8 75 1
8 76 1
8 80 1
8 82 1
8 85 1
8 90 1
8 93 1
8 102 1
8 103 1
8 105 1
8 126 1
8 130 1
8 139 1
8 143 1
8 159 1
8 188 1
8 197 1
8 199 1
8 212 1
8 215 1
8 223 1
8 236 1
8 241 1
8 248 1
8 262 1
8 282 1
8 296 1
8 312 1
8 318 1
8 338 1
8 348 1
8 350 1
8 360 1
8 391 1
9 10 1
9 11 1
9 12 1
9 13 1
9 24 1
9 29 1
9 32 1
9 37 1
9 43 1
9 45 1
9 47 1
9 50 1
9 60 1
9 61 1
9 62 1
9 69 1
9 70 1
9 75 1
9 76 1
9 78 1
9 83 1
9 84 1
9 88 1
9 108 1
9 112 1
9 115 1
9 130 1
9 131 1
9 167 1
9 181 1
9 184 1
9 225 1
9 230 1
9 240 1
9 247 1
9 253 1
9 258 1
9 284 1
9 302 1
9 320 1
9 321 1
9 327 1
9 361 1
9 362 1
10 13 1
10 18 1
10 22 1
10 45 1
10 46 1
10 55 1
10 73 1
10 80 1
10 119 1
10 134 1
10 158 1
10 196 1
10 301 1
10 321 1
10 381 1
10 386 1
11 13 1
11 15 1
11 21 1
11 22 1
11 28 1
11 29 1
11 31 1
11 37 1
11 39 1
11 40 1
11 41 1
11 43 1
11 47 1
11 49 1
11 56 1
11 57 1
11 64 1
11 65 1
11 67 1
11 85 1
11 87 1
11 131 1
11 134 1
11 171 1
11 183 1
11 193 1
11 202 1
11 211 1
11 216 1
11 232 1
11 233 1
11 234 1
11 243 1
11 258 1
11 277 1
11 284 1
11 291 1
11 306 1
11 307 1
11 319 1
11 326 1
11 341 1
11 349 1
11 350 1
11 385 1
11 392 1
11 400 1
12 14 1
12 21 1
12 23 1
12 25 1
12 26 1
12 35 1
12 46 1
12 81 1
12 83 1
12 89 1
12 101 1
12 110 1
12 177 1
12 196 1
12 227 1
12 279 1
12 300 1
12 311 1
13 19 1
13 57 1
13 64 1
13 114 1
13 137 1
13 182 1
13 192 1
13 195 1
13 231 1
13 243 1
13 247 1
13 263 1
13 324 1
13 339 1
13 378 1
13 379 1
14 16 1
14 17 1
14 19 1
14 36 1
14 55 1
14 114 1
14 135 1
14 258 1
14 343 1
15 24 1
15 26 1
15 30 1
15 37 1
15 84 1
15 110 1
15 111 1
15 118 1
15 125 1
15 141 1
15 149 1
15 187 1
15 204 1
15 241 1
15 260 1
15 264 1
15 315 1
15 356 1
16 17 1
16 19 1
16 38 1
16 47 1
16 52 1
16 117 1
16 128 1
16 147 1
16 178 1
16 195 1
16 242 1
16 269 1
16 272 1
16 296 1
16 310 1
16 354 1
16 365 1
16 390 1
17 54 1
17 100 1
17 207 1
17 217 1
17 265 1
17 302 1
17 317 1
17 348 1
18 20 1
18 25 1
18 26 1
18 49 1
18 60 1
18 63 1
18 112 1
18 123 1
18 161 1
18 173 1
18 203 1
18 210 1
18 278 1
18 285 1
18 303 1
18 359 1
18 384 1
18 393 1
19 27 1
19 31 1
19 32 1
19 34 1
19 53 1
19 54 1
19 72 1
19 81 1
19 83 1
19 105 1
19 107 1
19 128 1
19 141 1
19 153 1
19 155 1
19 180 1
19 202 1
19 206 1
19 240 1
19 294 1
19 305 1
19 323 1
19 394 1
20 27 1
20 48 1
20 55 1
20 82 1
20 106 1
20 120 1
20 141 1
20 164 1
20 169 1
20 172 1
20 186 1
20 201 1
20 238 1
20 250 1
20 277 1
20 313 1
20 336 1
21 22 1
21 23 1
21 24 1
21 25 1
21 28 1
21 34 1
21 45 1
21 50 1
21 58 1
21 61 1
21 67 1
21 68 1
21 69 1
21 92 1
21 96 1
21 97 1
21 108 1
21 116 1
21 127 1
21 132 1
21 133 1
21 149 1
21 152 1
21 157 1
21 175 1
21 187 1
21 189 1
21 220 1
21 236 1
21 254 1
21 261 1
21 296 1
21 297 1
21 324 1
22 33 1
22 37 1
22 48 1
22 63 1
22 66 1
22 71 1
22 87 1
22 98 1
22 124 1
22 143 1
22 248 1
22 322 1
22 369 1
22 377 1
23 30 1
23 33 1
23 44 1
23 50 1
23 54 1
23 61 1
23 83 1
23 85 1
23 113 1
23 115 1
23 121 1
23 138 1
23 165 1
23 191 1
23 203 1
23 280 1
23 340 1
23 367 1
23 376 1
24 30 1
24 84 1
24 122 1
24 167 1
24 192 1
24 242 1
24 252 1
24 273 1
24 282 1
24 291 1
24 348 1
24 395 1
25 28 1
25 70 1
25 79 1
25 80 1
25 103 1
25 105 1
25 157 1
25 169 1
25 200 1
25 225 1
25 242 1
25 246 1
25 285 1
25 304 1
25 383 1
26 28 1
26 42 1
26 49 1
26 74 1
26 90 1
26 140 1
26 146 1
26 152 1
26 160 1
26 229 1
26 234 1
26 262 1
26 271 1
26 278 1
26 284 1
26 286 1
26 300 1
26 348 1
26 366 1
27 40 1
27 74 1
27 98 1
27 123 1
27 124 1
27 141 1
27 149 1
27 150 1
27 152 1
27 175 1
27 177 1
27 232 1
27 240 1
27 272 1
27 273 1
27 287 1
27 313 1
27 353 1
27 366 1
28 29 1
28 34 1
28 36 1
28 44 1
28 50 1
28 59 1
28 64 1
28 72 1
28 76 1
28 80 1
28 121 1
28 140 1
28 144 1
28 159 1
28 178 1
28 215 1
28 224 1
28 234 1
28 265 1
28 270 1
28 279 1
28 287 1
28 288 1
28 308 1
28 327 1
28 328 1
28 345 1
28 346 1
28 347 1
28 368 1
28 387 1
29 84 1
29 248 1
30 36 1
30 70 1
30 97 1
30 107 1
30 113 1
30 133 1
30 148 1
30 184 1
30 226 1
30 365 1
31 53 1
31 58 1
31 66 1
31 77 1
31 91 1
31 97 1
31 104 1
31 108 1
31 138 1
31 162 1
31 171 1
31 180 1
31 181 1
31 202 1
31 212 1
31 213 1
31 226 1
31 246 1
31 339 1
31 356 1
32 34 1
32 41 1
32 43 1
32 44 1
32 49 1
32 82 1
32 101 1
32 112 1
32 250 1
32 267 1
32 292 1
32 328 1
32 388 1
33 58 1
33 62 1
33 79 1
33 91 1
33 112 1
33 148 1
33 156 1
33 160 1
33 283 1
33 332 1
33 398 1
34 38 1
34 41 1
34 85 1
34 109 1
34 118 1
34 132 1
34 147 1
34 199 1
34 204 1
34 251 1
34 273 1
34 304 1
35 51 1
35 66 1
35 104 1
35 108 1
35 183 1
35 214 1
35 389 1
36 42 1
36 56 1
36 59 1
36 93 1
36 94 1
36 106 1
37 71 1
37 99 1
37 111 1
37 121 1
37 174 1
37 191 1
37 243 1
37 265 1
37 270 1
37 313 1
37 343 1
37 375 1
37 390 1
38 48 1
38 52 1
38 53 1
38 63 1
38 65 1
38 75 1
38 95 1
38 97 1
38 99 1
38 119 1
38 124 1
38 129 1
38 135 1
38 154 1
38 161 1
38 196 1
38 214 1
38 218 1
38 237 1
38 250 1
38 252 1
38 259 1
38 261 1
38 314 1
38 320 1
38 326 1
38 372 1
38 386 1
38 389 1
39 95 1
39 106 1
39 109 1
39 153 1
39 187 1
39 193 1
39 226 1
39 235 1
39 335 1
39 370 1
39 377 1
40 354 1
41 72 1
41 275 1
41 300 1
42 52 1
42 111 1
42 124 1
42 170 1
42 176 1
42 235 1
43 48 1
43 56 1
43 58 1
43 63 1
43 89 1
43 103 1
43 120 1
43 129 1
43 194 1
43 197 1
43 201 1
43 265 1
43 309 1
44 116 1
44 228 1
44 237 1
44 276 1
45 51 1
45 181 1
45 233 1
45 245 1
45 271 1
46 73 1
46 79 1
46 132 1
46 193 1
46 201 1
46 217 1
46 245 1
46 293 1
46 322 1
46 389 1
46 398 1
47 198 1
48 61 1
48 65 1
48 72 1
48 117 1
48 120 1
48 192 1
48 229 1
48 241 1
49 74 1
49 106 1
49 217 1
49 219 1
49 305 1
50 51 1
50 55 1
50 95 1
50 100 1
50 111 1
50 126 1
50 210 1
50 216 1
50 225 1
50 273 1
52 126 1
53 59 1
53 76 1
53 94 1
53 163 1
53 209 1
53 246 1
53 367 1
54 60 1
54 96 1
54 179 1
54 186 1
54 198 1
54 290 1
54 324 1
54 372 1
55 81 1
55 94 1
55 172 1
55 178 1
55 213 1
55 231 1
55 256 1
55 319 1
56 68 1
56 172 1
56 209 1
56 233 1
56 245 1
57 68 1
57 88 1
57 104 1
57 105 1
57 110 1
57 136 1
57 137 1
57 143 1
57 210 1
57 230 1
57 235 1
57 252 1
57 319 1
57 331 1
59 139 1
59 159 1
59 215 1
59 259 1
59 289 1
59 336 1
59 344 1
59 347 1
59 374 1
59 383 1
59 399 1
60 65 1
60 88 1
60 185 1
60 275 1
60 362 1
61 62 1
61 86 1
61 113 1
61 204 1
61 208 1
61 222 1
61 229 1
61 254 1
61 308 1
61 325 1
62 262 1
62 293 1
63 136 1
63 154 1
63 162 1
63 172 1
63 207 1
63 249 1
63 251 1
63 344 1
64 66 1
64 150 1
64 167 1
64 184 1
64 274 1
64 280 1
65 355 1
66 120 1
66 260 1
66 262 1
68 145 1
68 164 1
68 185 1
68 199 1
68 297 1
69 146 1
69 189 1
69 302 1
71 86 1
71 200 1
71 261 1
71 308 1
71 323 1
71 337 1
73 286 1
75 129 1
75 135 1
75 161 1
75 198 1
75 211 1
75 301 1
75 318 1
75 373 1
76 281 1
76 283 1
76 291 1
76 365 1
77 78 1
77 87 1
77 91 1
77 102 1
77 113 1
77 116 1
77 157 1
77 158 1
77 201 1
77 234 1
77 237 1
77 270 1
78 118 1
78 131 1
78 137 1
78 274 1
78 303 1
79 104 1
79 175 1
79 197 1
79 288 1
79 295 1
79 298 1
80 103 1
80 345 1
81 138 1
81 140 1
81 151 1
81 184 1
81 213 1
81 231 1
81 239 1
81 309 1
81 373 1
82 87 1
82 125 1
82 358 1
83 89 1
83 96 1
83 110 1
83 114 1
83 115 1
83 128 1
83 148 1
83 156 1
83 206 1
83 269 1
83 340 1
83 360 1
83 362 1
84 92 1
84 383 1
85 143 1
85 146 1
85 208 1
85 219 1
85 228 1
85 239 1
85 294 1
85 318 1
86 116 1
86 128 1
86 228 1
86 322 1
87 88 1
87 139 1
87 196 1
87 227 1
87 295 1
87 371 1
88 99 1
88 122 1
88 144 1
88 221 1
89 90 1
89 380 1
89 387 1
90 145 1
90 329 1
91 119 1
91 179 1
91 181 1
91 186 1
91 188 1
91 197 1
91 238 1
91 247 1
91 338 1
91 382 1
92 93 1
93 211 1
94 96 1
94 157 1
94 160 1
94 212 1
94 224 1
94 231 1
94 301 1
94 338 1
94 356 1
94 358 1
94 377 1
95 100 1
95 153 1
95 205 1
95 213 1
95 261 1
95 376 1
96 114 1
96 341 1
97 99 1
97 158 1
97 166 1
97 168 1
97 191 1
97 205 1
97 223 1
97 305 1
98 182 1
98 223 1
99 221 1
99 272 1
99 316 1
100 376 1
101 130 1
101 165 1
101 266 1
101 290 1
101 364 1
101 375 1
102 349 1
103 117 1
103 150 1
103 253 1
103 267 1
103 359 1
104 123 1
104 329 1
105 107 1
105 115 1
105 125 1
105 127 1
105 167 1
106 345 1
107 121 1
107 155 1
107 156 1
107 207 1
107 244 1
107 249 1
107 288 1
108 239 1
110 177 1
110 183 1
110 298 1
111 142 1
111 194 1
111 222 1
111 248 1
111 387 1
112 252 1
112 295 1
112 358 1
112 374 1
113 218 1
113 227 1
113 388 1
114 202 1
114 254 1
114 301 1
114 397 1
115 155 1
115 163 1
115 168 1
116 162 1
116 203 1
116 268 1
116 315 1
117 118 1
117 148 1
117 200 1
117 322 1
117 364 1
118 186 1
118 314 1
118 364 1
119 130 1
119 142 1
119 218 1
119 275 1
119 360 1
120 164 1
120 175 1
120 380 1
121 316 1
121 355 1
122 212 1
122 351 1
122 372 1
123 151 1
123 180 1
123 210 1
123 224 1
123 351 1
124 138 1
124 173 1
124 190 1
124 342 1
124 347 1
125 170 1
125 185 1
125 255 1
125 256 1
125 271 1
125 310 1
125 379 1
126 325 1
127 163 1
127 179 1
128 220 1
128 222 1
128 278 1
128 311 1
129 219 1
129 256 1
129 287 1
129 352 1
130 133 1
130 204 1
130 206 1
130 277 1
130 281 1
130 302 1
131 292 1
132 137 1
132 145 1
132 216 1
132 233 1
132 342 1
132 371 1
133 247 1
134 165 1
134 211 1
134 316 1
134 352 1
134 391 1
135 178 1
135 182 1
136 142 1
136 166 1
136 177 1
136 188 1
137 190 1
137 286 1
137 334 1
137 336 1
137 385 1
138 299 1
138 309 1
138 373 1
139 144 1
139 289 1
139 337 1
139 384 1
140 194 1
140 195 1
142 277 1
143 361 1
144 290 1
144 393 1
145 389 1
146 150 1
146 207 1
146 228 1
147 171 1
147 293 1
147 363 1
148 168 1
148 176 1
148 203 1
148 244 1
148 318 1
149 170 1
149 173 1
149 226 1
149 236 1
149 257 1
149 387 1
151 183 1
151 345 1
152 168 1
153 264 1
153 399 1
154 188 1
154 214 1
156 176 1
156 230 1
156 346 1
157 363 1
157 390 1
158 160 1
158 174 1
158 280 1
158 296 1
158 327 1
158 367 1
158 376 1
158 384 1
159 195 1
159 289 1
159 297 1
160 174 1
160 326 1
160 335 1
161 254 1
162 244 1
162 246 1
162 268 1
162 320 1
162 384 1
162 398 1
163 180 1
163 189 1
163 221 1
163 241 1
164 351 1
167 310 1
167 392 1
168 298 1
168 339 1
168 357 1
168 361 1
169 242 1
170 236 1
170 266 1
170 393 1
171 350 1
171 362 1
173 200 1
173 312 1
173 363 1
174 323 1
174 390 1
175 369 1
176 215 1
176 217 1
176 304 1
176 306 1
176 313 1
177 292 1
180 192 1
180 276 1
180 396 1
181 208 1
182 344 1
182 396 1
183 253 1
183 372 1
184 268 1
185 285 1
185 325 1
186 209 1
186 251 1
187 206 1
187 235 1
187 368 1
188 255 1
188 271 1
189 208 1
189 230 1
190 199 1
190 224 1
190 282 1
190 284 1
191 257 1
193 198 1
193 386 1
194 253 1
198 238 1
198 342 1
200 341 1
201 267 1
203 220 1
203 349 1
204 311 1
205 304 1
207 249 1
207 267 1
207 272 1
208 209 1
208 239 1
208 293 1
208 332 1
208 341 1
208 356 1
209 255 1
209 319 1
209 346 1
209 367 1
209 374 1
209 392 1
210 274 1
211 394 1
212 392 1
214 317 1
214 364 1
214 378 1
215 307 1
216 371 1
217 223 1
217 282 1
217 306 1
219 363 1
219 388 1
220 365 1
221 258 1
221 260 1
221 393 1
223 260 1
223 400 1
225 340 1
225 342 1
227 315 1
227 357 1
228 245 1
230 240 1
232 243 1
232 370 1
233 294 1
233 349 1
234 355 1
234 400 1
235 297 1
236 269 1
236 395 1
237 275 1
241 250 1
241 274 1
241 303 1
242 268 1
242 357 1
243 256 1
243 278 1
244 317 1
244 398 1
247 366 1
248 283 1
249 263 1
250 259 1
251 361 1
252 270 1
252 331 1
252 343 1
253 310 1
253 320 1
254 307 1
255 352 1
256 369 1
257 266 1
257 281 1
257 299 1
258 285 1
259 329 1
260 312 1
261 396 1
263 264 1
263 276 1
263 312 1
264 290 1
267 373 1
268 279 1
269 354 1
271 289 1
271 329 1
271 353 1
273 357 1
274 303 1
278 311 1
278 353 1
279 358 1
279 380 1
279 385 1
279 397 1
280 309 1
281 307 1
282 306 1
282 332 1
283 325 1
284 378 1
286 298 1
286 347 1
286 391 1
288 381 1
292 344 1
292 382 1
293 332 1
293 352 1
293 388 1
294 359 1
295 305 1
296 331 1
300 333 1
301 374 1
303 377 1
304 337 1
308 370 1
309 326 1
309 338 1
309 381 1
310 366 1
313 334 1
315 324 1
319 395 1
320 359 1
320 360 1
322 323 1
322 350 1
322 397 1
324 379 1
331 343 1
332 346 1
333 354 1
337 368 1
339 368 1
340 397 1
342 371 1
343 353 1
343 380 1
343 385 1
353 383 1
360 394 1
363 400 1
367 369 1
371 375 1
375 399 1
377 382 1
